% Auto-generated by scripts/generate_dzn.py
% problem_type   = regex
% instance       = regex_15
% source_json    = instances_json/2_high_blowup/regex_15.json
% blowup         = 152.55172413793105
% representation = NFA

mode = 1;

var_count = 18;
n_constraints = 2;
Q = 16;
S = 3;
q0 = [1, 1];
F = [{16}, {13}];
weights = [3, 9, 5, 7, 8, 7, 1, 2, 1, 8, 8, 9, 7, 1, 5, 4, 1, 1];
d_dfa = array3d(1..2, 1..16, 1..3, [
  % k = 1
    0, 0, 0,
    0, 0, 0,
    0, 0, 0,
    0, 0, 0,
    0, 0, 0,
    0, 0, 0,
    0, 0, 0,
    0, 0, 0,
    0, 0, 0,
    0, 0, 0,
    0, 0, 0,
    0, 0, 0,
    0, 0, 0,
    0, 0, 0,
    0, 0, 0,
    0, 0, 0,

  % k = 2
    0, 0, 0,
    0, 0, 0,
    0, 0, 0,
    0, 0, 0,
    0, 0, 0,
    0, 0, 0,
    0, 0, 0,
    0, 0, 0,
    0, 0, 0,
    0, 0, 0,
    0, 0, 0,
    0, 0, 0,
    0, 0, 0,
    0, 0, 0,
    0, 0, 0,
    0, 0, 0
]);
d_nfa = array3d(1..2, 1..16, 1..3, [
  % k = 1
    {1}, {1, 2}, {1},
    {}, {3}, {},
    {4}, {4}, {4},
    {5}, {5}, {5},
    {6}, {6}, {6},
    {7}, {7}, {7},
    {8}, {8}, {8},
    {9}, {9}, {9},
    {10}, {10}, {10},
    {11}, {11}, {11},
    {12}, {12}, {12},
    {13}, {13}, {13},
    {14}, {14}, {14},
    {15}, {15}, {15},
    {16}, {16}, {16},
    {}, {}, {},

  % k = 2
    {1}, {1}, {2},
    {2}, {2}, {3},
    {3}, {3}, {4},
    {4}, {4}, {5},
    {5}, {5}, {6},
    {6}, {6}, {7},
    {7}, {7}, {8},
    {8}, {8}, {9},
    {9}, {9}, {10},
    {10}, {10}, {11},
    {11}, {11}, {12},
    {12}, {12}, {13},
    {13}, {13}, {},
    {}, {}, {},
    {}, {}, {},
    {}, {}, {}
]);
